\ Model Cl_45_Ins_5.lp
\ LP format - for model browsing. Use MPS format to capture full model detail.
Maximize
 
Subject To
 obj1: y[0] = 0
 obj2: y[1] = 0
 obj1_Exp: - y[0] + 99 x[0] + 96 x[1] + 94 x[2] + 93 x[3] + 84 x[4]
   + 82 x[5] + 75 x[6] + 73 x[7] + 72 x[8] + 70 x[9] + 64 x[10] + 64 x[11]
   + 63 x[12] + 63 x[13] + 62 x[14] + 59 x[15] + 59 x[16] + 58 x[17]
   + 55 x[18] + 53 x[19] + 53 x[20] + 52 x[21] + 49 x[22] + 47 x[23]
   + 46 x[24] + 39 x[25] + 32 x[26] + 32 x[27] + 31 x[28] + 31 x[29]
   + 31 x[30] + 25 x[31] + 23 x[32] + 22 x[33] + 21 x[34] + 20 x[35]
   + 19 x[36] + 17 x[37] + 16 x[38] + 15 x[39] + 15 x[40] + 8 x[41]
   + 7 x[42] + 6 x[43] + 2 x[44] = 0
 obj2_Exp: - y[1] + 79 x[0] + x[1] + 54 x[2] + 41 x[3] + 66 x[4] + 36 x[5]
   + 43 x[6] + 30 x[7] + 43 x[8] + 18 x[9] + 63 x[10] + 40 x[11] + 46 x[12]
   + 47 x[13] + 75 x[14] + 22 x[15] + 46 x[16] + 11 x[17] + 77 x[18]
   + 86 x[19] + 95 x[20] + 14 x[21] + 92 x[22] + 39 x[23] + 54 x[24]
   + 47 x[25] + 74 x[26] + 43 x[27] + 16 x[28] + 52 x[29] + 53 x[30]
   + 5 x[31] + 72 x[32] + 50 x[33] + 41 x[34] + 55 x[35] + 98 x[36]
   + 5 x[37] + 26 x[38] + 42 x[39] + 9 x[40] + 47 x[41] + 87 x[42]
   + 58 x[43] + 16 x[44] = 0
 Budget: 109 x[0] + 106 x[1] + 104 x[2] + 103 x[3] + 94 x[4] + 92 x[5]
   + 85 x[6] + 83 x[7] + 82 x[8] + 80 x[9] + 74 x[10] + 74 x[11] + 73 x[12]
   + 73 x[13] + 72 x[14] + 69 x[15] + 69 x[16] + 68 x[17] + 65 x[18]
   + 63 x[19] + 63 x[20] + 62 x[21] + 59 x[22] + 57 x[23] + 56 x[24]
   + 49 x[25] + 42 x[26] + 42 x[27] + 41 x[28] + 41 x[29] + 41 x[30]
   + 35 x[31] + 33 x[32] + 32 x[33] + 31 x[34] + 30 x[35] + 29 x[36]
   + 27 x[37] + 26 x[38] + 25 x[39] + 25 x[40] + 18 x[41] + 17 x[42]
   + 16 x[43] + 12 x[44] <= 800
Bounds
Binaries
 x[0] x[1] x[2] x[3] x[4] x[5] x[6] x[7] x[8] x[9] x[10] x[11] x[12] x[13]
 x[14] x[15] x[16] x[17] x[18] x[19] x[20] x[21] x[22] x[23] x[24] x[25]
 x[26] x[27] x[28] x[29] x[30] x[31] x[32] x[33] x[34] x[35] x[36] x[37]
 x[38] x[39] x[40] x[41] x[42] x[43] x[44]
Generals
 y[0] y[1]
End
